<number of tasks>
50

<cycle time>
1000

<order strength>
0.896


<task times>
1 316
2 70
3 166
4 185
5 165
6 133
7 248
8 231
9 199
10 215
11 167
12 102
13 102
14 378
15 480
16 23
17 156
18 417
19 261
20 339
21 112
22 76
23 333
24 30
25 104
26 198
27 162
28 424
29 182
30 279
31 70
32 363
33 248
34 57
35 146
36 262
37 345
38 37
39 456
40 118
41 257
42 402
43 539
44 133
45 293
46 520
47 169
48 155
49 25
50 70

<precedence relations>
1,5
2,4
2,5
3,4
3,5
4,6
4,7
5,6
5,7
6,8
6,9
6,10
6,11
7,8
7,9
7,10
7,11
8,12
8,13
8,14
9,12
9,13
9,14
10,12
10,13
10,14
11,12
11,13
11,14
12,15
12,16
12,17
13,15
13,16
13,17
14,15
14,16
14,17
15,18
15,19
15,20
16,18
16,19
16,20
17,18
17,19
17,20
18,21
18,22
18,23
18,24
19,21
19,22
19,23
19,24
20,21
20,22
20,23
20,24
21,25
21,26
21,27
22,25
22,26
22,27
23,25
23,26
23,27
24,25
24,26
24,27
25,28
25,29
25,30
26,28
26,29
26,30
27,28
27,29
27,30
28,31
29,31
30,32
30,41
31,33
32,42
33,34
33,35
33,36
33,37
34,38
34,40
36,38
36,39
36,40
37,39
37,45
37,46
38,41
39,44
39,47
41,42
41,43
42,47
43,44
43,45
43,46
44,48
44,49
45,49
45,50
46,49
46,50

<end>
